
Gurobi 10.0.1 (linux64) logging started Sat 12 Aug 2023 02:14:12 PM CDT

Set parameter LogFile to value "/home/dlcole3/graph_abstraction/plasmoexamples/SHP_serial/SHP_reserve_requirements/gurobi_logs/logfile14.log"
Set parameter NodefileStart to value 0.0005
Set parameter TimeLimit to value 36000
Gurobi Optimizer version 10.0.1 build v10.0.1rc0 (linux64)

CPU model: Intel(R) Xeon(R) CPU E5-2698 v4 @ 2.20GHz, instruction set [SSE2|AVX|AVX2]
Thread count: 40 physical cores, 80 logical processors, using up to 8 threads


Warning: excessive time spent in model updates.
Consider calling update less frequently.

Optimize a model with 1105538 rows, 641709 columns and 4644125 nonzeros
Model fingerprint: 0x6882c9cb
Variable types: 599982 continuous, 41727 integer (41727 binary)
Coefficient statistics:
  Matrix range     [5e-02, 2e+04]
  Objective range  [2e-01, 8e+04]
  Bounds range     [5e-02, 2e+04]
  RHS range        [2e-16, 7e+03]
Presolve removed 263243 rows and 109999 columns (presolve time = 5s) ...
Presolve removed 276962 rows and 116731 columns (presolve time = 10s) ...
Presolve removed 279370 rows and 119816 columns (presolve time = 15s) ...
Presolve removed 285178 rows and 124461 columns (presolve time = 20s) ...
Presolve removed 291967 rows and 124662 columns (presolve time = 25s) ...
Presolve removed 292897 rows and 125398 columns (presolve time = 30s) ...
Presolve removed 293237 rows and 125568 columns (presolve time = 35s) ...
Presolve removed 293307 rows and 125608 columns (presolve time = 40s) ...
Sparsify removed 131971 nonzeros (3%)
Presolve removed 293307 rows and 124808 columns
Presolve time: 42.91s
Presolved: 812231 rows, 516901 columns, 3900993 nonzeros
Variable types: 483539 continuous, 33362 integer (33314 binary)

Deterministic concurrent LP optimizer: primal simplex, dual simplex, and barrier
Showing barrier log only...

Root barrier log...

Elapsed ordering time = 5s
Elapsed ordering time = 17s
Elapsed ordering time = 20s
Elapsed ordering time = 25s
Elapsed ordering time = 31s
Elapsed ordering time = 35s
Elapsed ordering time = 40s
Elapsed ordering time = 43s
Elapsed ordering time = 45s
Elapsed ordering time = 50s
Elapsed ordering time = 56s
Elapsed ordering time = 60s
Elapsed ordering time = 65s
Ordering time: 66.92s

Barrier statistics:
 Dense cols : 132
 AA' NZ     : 2.276e+07
 Factor NZ  : 3.377e+08 (roughly 3.0 GB of memory)
 Factor Ops : 1.496e+12 (roughly 13 seconds per iteration)
 Threads    : 5

                  Objective                Residual
Iter       Primal          Dual         Primal    Dual     Compl     Time
   0  -2.20372336e+11 -1.80884896e+13  1.22e+04 2.03e+04  1.14e+08   133s
   1  -1.46853094e+11 -1.33443874e+13  8.33e+03 5.18e+05  7.00e+07   140s
   2  -8.69720554e+10 -8.20911782e+12  5.09e+03 8.91e+04  3.88e+07   153s
   3  -1.53304140e+10 -3.27096872e+12  1.15e+03 1.95e+00  8.81e+06   166s
   4  -2.88140926e+09 -1.46599311e+12  4.71e+02 5.38e-01  3.34e+06   179s
   5   4.14232592e+09 -6.95035023e+11  1.15e+02 3.15e-01  9.23e+05   193s
   6   5.55393981e+09 -2.78511200e+11  4.15e+01 1.77e-02  2.92e+05   207s
   7   5.02503207e+09 -8.38075935e+10  1.33e+01 8.22e-03  7.62e+04   222s
   8   2.71529083e+09 -3.72708614e+10  3.28e+00 8.10e-03  2.70e+04   235s
   9   1.27971277e+09 -1.76670621e+10  1.46e+00 3.52e-03  1.20e+04   250s
  10   2.82582282e+08 -3.47878420e+09  2.22e-01 6.88e-04  2.25e+03   266s
  11   8.87377462e+07 -4.10933086e+08  3.23e-04 1.12e-04  2.91e+02   281s
  12   6.97089086e+07 -3.10721962e+07  2.66e-05 7.19e-05  5.88e+01   299s
  13   5.67224143e+07  1.89779716e+07  3.49e-06 5.78e-05  2.20e+01   321s
  14   5.23383219e+07  3.35966839e+07  1.43e-06 2.66e-05  1.09e+01   342s
  15   4.95696790e+07  4.27181356e+07  6.10e-07 8.01e-06  3.99e+00   358s
  16   4.83098558e+07  4.48114335e+07  2.82e-07 4.20e-06  2.04e+00   373s
  17   4.77322429e+07  4.57455820e+07  1.44e-07 2.45e-06  1.16e+00   388s
  18   4.74299339e+07  4.62963473e+07  9.35e-08 1.40e-06  6.61e-01   402s
  19   4.72543272e+07  4.66117021e+07  5.81e-08 7.93e-07  3.75e-01   417s
  20   4.71891099e+07  4.67293594e+07  4.47e-08 5.62e-07  2.68e-01   430s
  21   4.71166220e+07  4.67898068e+07  3.01e-08 4.37e-07  1.91e-01   444s
  22   4.71079310e+07  4.68564592e+07  2.84e-08 2.99e-07  1.47e-01   457s
  23   4.70897446e+07  4.68762410e+07  2.34e-08 2.57e-07  1.24e-01   469s
  24   4.70804658e+07  4.68977049e+07  2.09e-08 2.11e-07  1.07e-01   482s
  25   4.70538440e+07  4.69204910e+07  2.27e-08 1.64e-07  7.77e-02   498s
  26   4.70400086e+07  4.69471400e+07  3.74e-08 1.09e-07  5.41e-02   518s
  27   4.70293060e+07  4.69653711e+07  6.45e-08 7.15e-08  3.73e-02   538s
  28   4.70210868e+07  4.69730843e+07  1.82e-07 5.54e-08  2.80e-02   557s
  29   4.70142896e+07  4.69799615e+07  1.30e-07 4.11e-08  2.00e-02   576s
  30   4.70111830e+07  4.69861666e+07  1.22e-07 2.82e-08  1.46e-02   595s
  31   4.70098207e+07  4.69912994e+07  1.19e-07 1.77e-08  1.08e-02   615s
  32   4.70060278e+07  4.69940100e+07  1.41e-07 1.21e-08  7.01e-03   635s
  33   4.70024147e+07  4.69975863e+07  1.27e-07 1.37e-08  2.81e-03   655s
  34   4.70005799e+07  4.69990894e+07  5.45e-08 1.49e-08  8.69e-04   673s
  35   4.70003503e+07  4.69998693e+07  1.94e-07 2.29e-08  2.80e-04   690s
  36   4.70002928e+07  4.70002495e+07  1.12e-07 1.89e-08  2.52e-05   705s
  37   4.70002642e+07  4.70002626e+07  7.99e-09 1.82e-08  9.60e-07   720s
  38   4.70002629e+07  4.70002634e+07  6.60e-06 2.71e-08  1.24e-07   733s
  39   4.70002634e+07  4.70002634e+07  2.23e-08 4.70e-08  1.25e-10   745s

Barrier solved model in 39 iterations and 745.05 seconds (694.87 work units)
Optimal objective 4.70002634e+07


Root crossover log...

  315517 DPushes remaining with DInf 0.0000000e+00               747s
  105869 DPushes remaining with DInf 0.0000000e+00               751s
   48867 DPushes remaining with DInf 0.0000000e+00               757s
   27081 DPushes remaining with DInf 0.0000000e+00               761s
   11587 DPushes remaining with DInf 0.0000000e+00               766s
    3507 DPushes remaining with DInf 0.0000000e+00               770s
       0 DPushes remaining with DInf 0.0000000e+00               774s

   20351 PPushes remaining with PInf 0.0000000e+00               775s
   13388 PPushes remaining with PInf 0.0000000e+00               775s
    3057 PPushes remaining with PInf 0.0000000e+00               781s
       0 PPushes remaining with PInf 0.0000000e+00               783s

  Push phase complete: Pinf 0.0000000e+00, Dinf 7.2097282e-07    783s


Root simplex log...

Iteration    Objective       Primal Inf.    Dual Inf.      Time
  157843    4.7000263e+07   0.000000e+00   0.000000e+00    785s
  157843    4.7000263e+07   0.000000e+00   0.000000e+00    787s
Waiting for other threads to finish...         853s
Concurrent spin time: 90.88s (can be avoided by choosing Method=3)

Solved with barrier

Root relaxation: objective 4.700026e+07, 157843 iterations, 830.35 seconds (694.15 work units)
Total elapsed time = 886.70s
Total elapsed time = 891.44s

    Nodes    |    Current Node    |     Objective Bounds      |     Work
 Expl Unexpl |  Obj  Depth IntInf | Incumbent    BestBd   Gap | It/Node Time

     0     0 4.7000e+07    0  562          - 4.7000e+07      -     -  912s
     0     0 4.7000e+07    0  562          - 4.7000e+07      -     -  914s
H    0     0                    4.799799e+07 4.7000e+07  2.08%     -  968s

Explored 1 nodes (157995 simplex iterations) in 969.00 seconds (818.68 work units)
Thread count was 8 (of 80 available processors)

Solution count 2: 4.7998e+07 4.7998e+07 

Optimal solution found (tolerance 5.00e-02)
Best objective 4.799798986688e+07, best bound 4.700026343071e+07, gap 2.0787%

User-callback calls 123556, time in user-callback 0.36 sec
